(set-logic QF_NRA)
(declare-fun protectedzone () Real)
(declare-fun y2uscore3dollarsk_2 () Real)
(declare-fun x2uscore3dollarsk_4 () Real)
(declare-fun y1uscore3dollarsk_3 () Real)
(declare-fun x1uscore3dollarsk_5 () Real)
(declare-fun y2uscore2dollarsk_9 () Real)
(declare-fun x2uscore2dollarsk_7 () Real)
(declare-fun y1uscore2dollarsk_8 () Real)
(declare-fun x1uscore2dollarsk_6 () Real)
(declare-fun y2 () Real)
(declare-fun x2 () Real)
(declare-fun y1 () Real)
(declare-fun x1 () Real)
(declare-fun omuscore3dollarsk_0 () Real)
(declare-fun c1uscore2dollarsk_1 () Real)
(assert (>= (+ (* (+ x1uscore3dollarsk_5 (* (- 1.0) y1uscore3dollarsk_3))
                  (+ x1uscore3dollarsk_5 (* (- 1.0) y1uscore3dollarsk_3)))
               (* (+ x2uscore3dollarsk_4 (* (- 1.0) y2uscore3dollarsk_2))
                  (+ x2uscore3dollarsk_4 (* (- 1.0) y2uscore3dollarsk_2))))
            (* protectedzone protectedzone)))
(assert (>= (+ (* (+ x1uscore2dollarsk_6 (* (- 1.0) y1uscore2dollarsk_8))
                  (+ x1uscore2dollarsk_6 (* (- 1.0) y1uscore2dollarsk_8)))
               (* (+ x2uscore2dollarsk_7 (* (- 1.0) y2uscore2dollarsk_9))
                  (+ x2uscore2dollarsk_7 (* (- 1.0) y2uscore2dollarsk_9))))
            (* protectedzone protectedzone)))
(assert (>= (+ (* (+ x1 (* (- 1.0) y1)) (+ x1 (* (- 1.0) y1)))
               (* (+ x2 (* (- 1.0) y2)) (+ x2 (* (- 1.0) y2))))
            (* protectedzone protectedzone)))
(assert (not (= (+ (* omuscore3dollarsk_0
                      (+ x1uscore3dollarsk_5 (* (- 1.0) c1uscore2dollarsk_1)))
                   (* (- 1.0)
                      omuscore3dollarsk_0
                      (+ y1uscore3dollarsk_3 (* (- 1.0) c1uscore2dollarsk_1))))
                (* omuscore3dollarsk_0
                   (+ x1uscore3dollarsk_5 (* (- 1.0) y1uscore3dollarsk_3))))))
(check-sat)
(exit)
